<?xml version = "1.0" encoding="UTF-8" standalone="yes"?>
<CPLEXSolution version="1.2">
 <header
   problemName="IloCplex"
   solutionName="p0"
   solutionIndex="-1"
   objectiveValue="0"
   solutionTypeValue="3"
   solutionTypeString="primal"
   solutionStatusValue="127"
   solutionStatusString="integer feasible solution"
   solutionMethodString="mip"
   primalFeasible="0"
   dualFeasible="0"
   writeLevel="3"/>
 <quality
   epInt="1.0000000000000001e-05"
   epRHS="9.9999999999999995e-07"
   maxIntInfeas="0"
   maxPrimalInfeas="0"
   maxX="1"
   maxSlack="256"/>
 <variables>
  <variable index="258" value="1"/>
  <variable index="451" value="1"/>
  <variable index="738" value="1"/>
  <variable index="920" value="1"/>
  <variable index="1216" value="1"/>
  <variable index="1559" value="1"/>
  <variable index="1655" value="1"/>
  <variable index="1910" value="1"/>
  <variable index="2268" value="1"/>
  <variable index="2431" value="1"/>
  <variable index="2717" value="1"/>
  <variable index="3024" value="1"/>
  <variable index="3304" value="1"/>
  <variable index="3540" value="1"/>
  <variable index="3830" value="1"/>
  <variable index="4013" value="1"/>
  <variable index="4239" value="1"/>
  <variable index="4590" value="1"/>
  <variable index="4759" value="1"/>
  <variable index="5009" value="1"/>
  <variable index="5367" value="1"/>
  <variable index="5637" value="1"/>
  <variable index="5817" value="1"/>
  <variable index="6038" value="1"/>
  <variable index="6340" value="1"/>
  <variable index="6547" value="1"/>
  <variable index="6905" value="1"/>
  <variable index="7081" value="1"/>
  <variable index="7407" value="1"/>
  <variable index="7592" value="1"/>
  <variable index="7829" value="1"/>
  <variable index="8092" value="1"/>
  <variable index="8374" value="1"/>
  <variable index="8655" value="1"/>
  <variable index="8913" value="1"/>
  <variable index="9118" value="1"/>
  <variable index="9449" value="1"/>
  <variable index="9634" value="1"/>
  <variable index="9891" value="1"/>
  <variable index="10264" value="1"/>
  <variable index="10429" value="1"/>
  <variable index="10719" value="1"/>
  <variable index="10922" value="1"/>
  <variable index="11283" value="1"/>
  <variable index="11430" value="1"/>
  <variable index="11660" value="1"/>
  <variable index="11981" value="1"/>
  <variable index="12192" value="1"/>
  <variable index="12422" value="1"/>
  <variable index="12682" value="1"/>
  <variable index="12990" value="1"/>
  <variable index="13230" value="1"/>
  <variable index="13492" value="1"/>
  <variable index="13778" value="1"/>
  <variable index="13954" value="1"/>
  <variable index="14298" value="1"/>
  <variable index="14512" value="1"/>
  <variable index="14769" value="1"/>
  <variable index="15009" value="1"/>
  <variable index="15306" value="1"/>
  <variable index="15622" value="1"/>
  <variable index="15736" value="1"/>
  <variable index="15995" value="1"/>
  <variable index="16252" value="1"/>
  <variable index="16517" value="1"/>
  <variable index="16868" value="1"/>
  <variable index="17141" value="1"/>
  <variable index="17283" value="1"/>
  <variable index="17632" value="1"/>
  <variable index="17921" value="1"/>
  <variable index="18055" value="1"/>
  <variable index="18313" value="1"/>
  <variable index="18558" value="1"/>
  <variable index="18960" value="1"/>
  <variable index="19097" value="1"/>
  <variable index="19463" value="1"/>
  <variable index="19698" value="1"/>
  <variable index="19977" value="1"/>
  <variable index="20241" value="1"/>
  <variable index="20435" value="1"/>
  <variable index="20733" value="1"/>
  <variable index="20970" value="1"/>
  <variable index="21259" value="1"/>
  <variable index="21442" value="1"/>
  <variable index="21760" value="1"/>
  <variable index="21958" value="1"/>
  <variable index="22158" value="1"/>
  <variable index="22516" value="1"/>
  <variable index="22711" value="1"/>
  <variable index="22997" value="1"/>
  <variable index="23280" value="1"/>
  <variable index="23570" value="1"/>
  <variable index="23787" value="1"/>
  <variable index="23898" value="1"/>
  <variable index="24223" value="1"/>
  <variable index="24597" value="1"/>
  <variable index="24636" value="1"/>
  <variable index="24874" value="1"/>
  <variable index="25171" value="1"/>
  <variable index="25446" value="1"/>
  <variable index="25829" value="1"/>
  <variable index="26073" value="1"/>
  <variable index="26353" value="1"/>
  <variable index="26407" value="1"/>
  <variable index="26725" value="1"/>
  <variable index="27008" value="1"/>
  <variable index="27210" value="1"/>
  <variable index="27668" value="1"/>
  <variable index="27715" value="1"/>
  <variable index="28004" value="1"/>
  <variable index="28344" value="1"/>
  <variable index="28527" value="1"/>
  <variable index="28887" value="1"/>
  <variable index="29182" value="1"/>
  <variable index="29280" value="1"/>
  <variable index="29491" value="1"/>
  <variable index="29730" value="1"/>
  <variable index="29984" value="1"/>
  <variable index="30349" value="1"/>
  <variable index="30556" value="1"/>
  <variable index="30926" value="1"/>
  <variable index="31092" value="1"/>
  <variable index="31263" value="1"/>
  <variable index="31602" value="1"/>
  <variable index="31935" value="1"/>
  <variable index="32219" value="1"/>
  <variable index="32297" value="1"/>
  <variable index="32568" value="1"/>
  <variable index="33049" value="1"/>
  <variable index="33134" value="1"/>
  <variable index="33342" value="1"/>
  <variable index="33763" value="1"/>
  <variable index="33865" value="1"/>
  <variable index="34169" value="1"/>
  <variable index="34370" value="1"/>
  <variable index="34731" value="1"/>
  <variable index="34894" value="1"/>
  <variable index="35187" value="1"/>
  <variable index="35474" value="1"/>
  <variable index="35630" value="1"/>
  <variable index="35883" value="1"/>
  <variable index="36209" value="1"/>
  <variable index="36410" value="1"/>
  <variable index="36656" value="1"/>
  <variable index="37085" value="1"/>
  <variable index="37375" value="1"/>
  <variable index="37624" value="1"/>
  <variable index="37672" value="1"/>
  <variable index="38104" value="1"/>
  <variable index="38209" value="1"/>
  <variable index="38604" value="1"/>
  <variable index="38893" value="1"/>
  <variable index="39017" value="1"/>
  <variable index="39343" value="1"/>
  <variable index="39588" value="1"/>
  <variable index="39880" value="1"/>
  <variable index="39964" value="1"/>
  <variable index="40328" value="1"/>
  <variable index="40698" value="1"/>
  <variable index="40803" value="1"/>
  <variable index="41058" value="1"/>
  <variable index="41261" value="1"/>
  <variable index="41567" value="1"/>
  <variable index="41819" value="1"/>
  <variable index="42048" value="1"/>
  <variable index="42504" value="1"/>
  <variable index="42762" value="1"/>
  <variable index="42949" value="1"/>
  <variable index="43267" value="1"/>
  <variable index="43457" value="1"/>
  <variable index="43791" value="1"/>
  <variable index="44019" value="1"/>
  <variable index="44231" value="1"/>
  <variable index="44345" value="1"/>
  <variable index="44669" value="1"/>
  <variable index="44904" value="1"/>
  <variable index="45115" value="1"/>
  <variable index="45373" value="1"/>
  <variable index="45836" value="1"/>
  <variable index="45871" value="1"/>
  <variable index="46219" value="1"/>
  <variable index="46430" value="1"/>
  <variable index="46668" value="1"/>
  <variable index="47079" value="1"/>
  <variable index="47188" value="1"/>
  <variable index="47508" value="1"/>
  <variable index="47709" value="1"/>
  <variable index="47960" value="1"/>
  <variable index="48208" value="1"/>
  <variable index="48562" value="1"/>
  <variable index="48757" value="1"/>
  <variable index="48933" value="1"/>
  <variable index="49388" value="1"/>
  <variable index="49611" value="1"/>
  <variable index="49942" value="1"/>
  <variable index="49990" value="1"/>
  <variable index="50308" value="1"/>
  <variable index="50517" value="1"/>
  <variable index="50902" value="1"/>
  <variable index="51099" value="1"/>
  <variable index="51460" value="1"/>
  <variable index="51707" value="1"/>
  <variable index="51801" value="1"/>
  <variable index="52198" value="1"/>
  <variable index="52321" value="1"/>
  <variable index="52516" value="1"/>
  <variable index="52788" value="1"/>
  <variable index="53071" value="1"/>
  <variable index="53360" value="1"/>
  <variable index="53558" value="1"/>
  <variable index="53914" value="1"/>
  <variable index="54046" value="1"/>
  <variable index="54401" value="1"/>
  <variable index="54577" value="1"/>
  <variable index="54811" value="1"/>
  <variable index="55084" value="1"/>
  <variable index="55484" value="1"/>
  <variable index="55661" value="1"/>
  <variable index="55915" value="1"/>
  <variable index="56186" value="1"/>
  <variable index="56487" value="1"/>
  <variable index="56846" value="1"/>
  <variable index="57054" value="1"/>
  <variable index="57138" value="1"/>
  <variable index="57421" value="1"/>
  <variable index="57638" value="1"/>
  <variable index="57942" value="1"/>
  <variable index="58167" value="1"/>
  <variable index="58593" value="1"/>
  <variable index="58653" value="1"/>
  <variable index="59132" value="1"/>
  <variable index="59308" value="1"/>
  <variable index="59573" value="1"/>
  <variable index="59917" value="1"/>
  <variable index="60083" value="1"/>
  <variable index="60242" value="1"/>
  <variable index="60603" value="1"/>
  <variable index="60743" value="1"/>
  <variable index="61009" value="1"/>
  <variable index="61237" value="1"/>
  <variable index="61641" value="1"/>
  <variable index="61731" value="1"/>
  <variable index="62020" value="1"/>
  <variable index="62277" value="1"/>
  <variable index="62527" value="1"/>
  <variable index="62828" value="1"/>
  <variable index="63002" value="1"/>
  <variable index="63418" value="1"/>
  <variable index="63653" value="1"/>
  <variable index="63777" value="1"/>
  <variable index="64103" value="1"/>
  <variable index="64343" value="1"/>
  <variable index="64618" value="1"/>
  <variable index="64843" value="1"/>
  <variable index="65096" value="1"/>
  <variable index="65424" value="1"/>
  <variable index="65562" value="1"/>
  <variable index="65563" value="1"/>
  <variable index="65564" value="1"/>
  <variable index="65566" value="1"/>
  <variable index="65568" value="1"/>
  <variable index="65569" value="1"/>
  <variable index="65570" value="1"/>
  <variable index="65571" value="1"/>
  <variable index="65575" value="1"/>
  <variable index="65582" value="1"/>
 </variables>
</CPLEXSolution>
